c File: data_files/evolved_graphs/g0324.col
c
c Auto generated graph
c
p edge 100 1902
e 1 12
e 1 25
e 1 27
e 1 28
e 1 30
e 1 31
e 1 32
e 1 33
e 1 34
e 1 35
e 1 36
e 1 37
e 1 38
e 1 39
e 1 40
e 1 41
e 1 42
e 1 43
e 1 44
e 1 45
e 1 46
e 1 47
e 1 48
e 1 49
e 1 50
e 1 51
e 1 52
e 1 53
e 1 54
e 1 55
e 1 56
e 1 57
e 1 58
e 1 59
e 1 60
e 1 61
e 1 62
e 1 63
e 1 64
e 1 65
e 1 66
e 1 67
e 1 68
e 1 69
e 1 70
e 1 71
e 1 72
e 1 73
e 1 74
e 1 75
e 1 82
e 1 83
e 1 84
e 1 87
e 1 88
e 1 89
e 1 90
e 1 92
e 1 93
e 1 94
e 1 95
e 1 96
e 1 97
e 1 98
e 1 99
e 1 100
e 2 8
e 2 12
e 2 14
e 2 25
e 2 26
e 2 27
e 2 28
e 2 29
e 2 30
e 2 31
e 2 32
e 2 33
e 2 34
e 2 35
e 2 36
e 2 38
e 2 39
e 2 40
e 2 41
e 2 42
e 2 43
e 2 44
e 2 45
e 2 46
e 2 48
e 2 49
e 2 50
e 2 51
e 2 52
e 2 53
e 2 54
e 2 55
e 2 56
e 2 57
e 2 58
e 2 59
e 2 60
e 2 61
e 2 62
e 2 63
e 2 64
e 2 65
e 2 66
e 2 67
e 2 68
e 2 69
e 2 70
e 2 71
e 2 72
e 2 73
e 2 74
e 2 82
e 2 83
e 2 84
e 2 85
e 2 86
e 2 87
e 2 88
e 2 89
e 2 90
e 2 91
e 2 92
e 2 93
e 2 94
e 2 95
e 2 96
e 2 97
e 2 98
e 2 99
e 2 100
e 3 9
e 3 12
e 3 13
e 3 25
e 3 26
e 3 27
e 3 28
e 3 29
e 3 30
e 3 31
e 3 32
e 3 33
e 3 34
e 3 36
e 3 37
e 3 38
e 3 39
e 3 40
e 3 41
e 3 42
e 3 43
e 3 44
e 3 45
e 3 46
e 3 47
e 3 48
e 3 49
e 3 50
e 3 51
e 3 52
e 3 53
e 3 54
e 3 55
e 3 56
e 3 57
e 3 58
e 3 59
e 3 60
e 3 61
e 3 62
e 3 63
e 3 64
e 3 65
e 3 66
e 3 67
e 3 68
e 3 69
e 3 70
e 3 71
e 3 72
e 3 73
e 3 74
e 3 75
e 3 76
e 3 77
e 3 79
e 3 80
e 3 83
e 3 84
e 3 85
e 3 86
e 3 87
e 3 89
e 3 90
e 3 91
e 3 92
e 3 93
e 3 94
e 3 95
e 3 96
e 3 97
e 3 98
e 3 99
e 3 100
e 4 7
e 4 8
e 4 9
e 4 13
e 4 25
e 4 26
e 4 27
e 4 28
e 4 29
e 4 30
e 4 31
e 4 32
e 4 33
e 4 34
e 4 36
e 4 37
e 4 38
e 4 39
e 4 40
e 4 41
e 4 42
e 4 43
e 4 44
e 4 45
e 4 46
e 4 47
e 4 48
e 4 49
e 4 50
e 4 51
e 4 52
e 4 53
e 4 54
e 4 55
e 4 56
e 4 57
e 4 58
e 4 59
e 4 61
e 4 62
e 4 63
e 4 64
e 4 66
e 4 67
e 4 69
e 4 89
e 4 90
e 4 91
e 4 92
e 4 93
e 4 94
e 4 95
e 4 96
e 4 97
e 4 98
e 4 99
e 4 100
e 5 7
e 5 12
e 5 13
e 5 25
e 5 26
e 5 27
e 5 28
e 5 29
e 5 30
e 5 31
e 5 32
e 5 33
e 5 34
e 5 35
e 5 36
e 5 37
e 5 38
e 5 39
e 5 40
e 5 41
e 5 42
e 5 43
e 5 44
e 5 45
e 5 46
e 5 47
e 5 48
e 5 49
e 5 50
e 5 51
e 5 52
e 5 53
e 5 54
e 5 55
e 5 56
e 5 57
e 5 58
e 5 59
e 5 60
e 5 61
e 5 62
e 5 63
e 5 64
e 5 65
e 5 66
e 5 67
e 5 69
e 5 89
e 5 90
e 5 91
e 5 92
e 5 93
e 5 94
e 5 95
e 5 96
e 5 97
e 5 98
e 5 99
e 5 100
e 6 7
e 6 12
e 6 14
e 6 16
e 6 24
e 6 25
e 6 26
e 6 27
e 6 28
e 6 29
e 6 30
e 6 31
e 6 32
e 6 33
e 6 34
e 6 35
e 6 36
e 6 37
e 6 38
e 6 39
e 6 40
e 6 41
e 6 42
e 6 43
e 6 44
e 6 45
e 6 46
e 6 47
e 6 48
e 6 49
e 6 50
e 6 51
e 6 52
e 6 53
e 6 54
e 6 55
e 6 56
e 6 57
e 6 58
e 6 59
e 6 60
e 6 61
e 6 62
e 6 63
e 6 64
e 6 65
e 6 66
e 6 67
e 6 68
e 6 69
e 6 89
e 6 90
e 6 91
e 6 92
e 6 93
e 6 94
e 6 95
e 6 96
e 6 97
e 6 98
e 6 99
e 6 100
e 7 13
e 7 25
e 7 26
e 7 27
e 7 28
e 7 29
e 7 30
e 7 31
e 7 32
e 7 33
e 7 34
e 7 35
e 7 36
e 7 37
e 7 38
e 7 39
e 7 40
e 7 41
e 7 42
e 7 43
e 7 44
e 7 45
e 7 46
e 7 47
e 7 48
e 7 49
e 7 50
e 7 51
e 7 52
e 7 53
e 7 54
e 7 55
e 7 56
e 7 57
e 7 58
e 7 59
e 7 60
e 7 61
e 7 62
e 7 63
e 7 64
e 7 65
e 7 66
e 7 67
e 7 69
e 7 89
e 7 90
e 7 91
e 7 92
e 7 93
e 7 94
e 7 95
e 7 96
e 7 97
e 7 98
e 7 99
e 7 100
e 8 19
e 8 21
e 8 33
e 8 41
e 8 50
e 8 63
e 8 64
e 8 65
e 8 66
e 8 67
e 8 68
e 8 71
e 8 72
e 8 74
e 8 75
e 8 79
e 8 81
e 8 83
e 8 85
e 8 87
e 8 88
e 8 90
e 8 92
e 8 94
e 8 97
e 8 98
e 8 99
e 9 17
e 9 27
e 9 44
e 9 60
e 9 65
e 9 68
e 9 70
e 9 71
e 9 73
e 9 74
e 9 75
e 9 78
e 9 79
e 9 80
e 9 82
e 9 83
e 9 85
e 9 86
e 9 88
e 9 89
e 9 90
e 9 92
e 9 96
e 9 97
e 10 26
e 10 29
e 10 54
e 10 61
e 10 65
e 10 66
e 10 67
e 10 68
e 10 69
e 10 70
e 10 71
e 10 72
e 10 75
e 10 76
e 10 77
e 10 79
e 10 82
e 10 83
e 10 85
e 10 86
e 10 87
e 10 88
e 10 89
e 10 90
e 10 91
e 10 92
e 10 96
e 10 98
e 10 99
e 10 100
e 11 18
e 11 29
e 11 39
e 11 47
e 11 54
e 11 57
e 11 58
e 11 62
e 11 67
e 11 69
e 11 70
e 11 71
e 11 72
e 11 73
e 11 76
e 11 78
e 11 79
e 11 80
e 11 81
e 11 82
e 11 84
e 11 86
e 11 87
e 11 91
e 11 92
e 11 94
e 11 95
e 11 96
e 11 97
e 11 98
e 11 99
e 12 38
e 12 44
e 12 48
e 12 49
e 12 65
e 12 67
e 12 68
e 12 69
e 12 70
e 12 75
e 12 76
e 12 77
e 12 79
e 12 80
e 12 81
e 12 83
e 12 85
e 12 87
e 12 88
e 12 90
e 12 92
e 12 93
e 12 95
e 12 96
e 12 97
e 12 98
e 12 99
e 12 100
e 13 23
e 13 26
e 13 62
e 13 65
e 13 69
e 13 70
e 13 71
e 13 72
e 13 74
e 13 75
e 13 77
e 13 78
e 13 79
e 13 81
e 13 82
e 13 83
e 13 85
e 13 88
e 13 90
e 13 93
e 13 95
e 13 96
e 13 97
e 13 98
e 13 99
e 13 100
e 14 23
e 14 25
e 14 40
e 14 45
e 14 55
e 14 66
e 14 67
e 14 68
e 14 69
e 14 70
e 14 72
e 14 75
e 14 76
e 14 77
e 14 78
e 14 79
e 14 80
e 14 81
e 14 82
e 14 83
e 14 85
e 14 87
e 14 88
e 14 90
e 14 92
e 14 93
e 14 94
e 14 95
e 14 96
e 14 98
e 14 99
e 14 100
e 15 19
e 15 23
e 15 31
e 15 33
e 15 36
e 15 59
e 15 62
e 15 65
e 15 67
e 15 68
e 15 69
e 15 71
e 15 73
e 15 74
e 15 75
e 15 76
e 15 77
e 15 78
e 15 82
e 15 83
e 15 86
e 15 87
e 15 89
e 15 92
e 15 94
e 15 95
e 15 98
e 15 99
e 15 100
e 16 70
e 16 71
e 16 72
e 16 74
e 16 75
e 16 76
e 16 77
e 16 78
e 16 80
e 16 81
e 16 82
e 16 84
e 16 85
e 16 87
e 16 88
e 16 89
e 16 90
e 16 92
e 16 94
e 16 96
e 16 97
e 16 98
e 16 99
e 16 100
e 17 24
e 17 39
e 17 46
e 17 59
e 17 60
e 17 62
e 17 65
e 17 66
e 17 67
e 17 68
e 17 70
e 17 73
e 17 76
e 17 78
e 17 80
e 17 81
e 17 82
e 17 85
e 17 88
e 17 89
e 17 91
e 17 93
e 17 94
e 17 95
e 17 96
e 17 100
e 18 22
e 18 40
e 18 51
e 18 61
e 18 68
e 18 69
e 18 70
e 18 71
e 18 72
e 18 74
e 18 75
e 18 76
e 18 77
e 18 78
e 18 79
e 18 81
e 18 82
e 18 83
e 18 84
e 18 85
e 18 87
e 18 89
e 18 90
e 18 91
e 18 92
e 18 95
e 18 97
e 18 99
e 19 24
e 19 25
e 19 28
e 19 29
e 19 54
e 19 65
e 19 66
e 19 67
e 19 68
e 19 70
e 19 73
e 19 74
e 19 75
e 19 77
e 19 79
e 19 80
e 19 81
e 19 83
e 19 84
e 19 85
e 19 86
e 19 88
e 19 89
e 19 92
e 19 93
e 19 95
e 19 96
e 19 97
e 20 32
e 20 46
e 20 65
e 20 66
e 20 68
e 20 69
e 20 73
e 20 75
e 20 76
e 20 78
e 20 80
e 20 81
e 20 82
e 20 85
e 20 87
e 20 90
e 20 92
e 20 93
e 20 94
e 20 95
e 20 98
e 21 65
e 21 66
e 21 67
e 21 70
e 21 72
e 21 73
e 21 75
e 21 77
e 21 79
e 21 82
e 21 83
e 21 84
e 21 85
e 21 86
e 21 88
e 21 89
e 21 90
e 21 91
e 21 93
e 21 94
e 21 97
e 21 98
e 21 99
e 21 100
e 22 55
e 22 65
e 22 68
e 22 69
e 22 70
e 22 74
e 22 76
e 22 77
e 22 80
e 22 82
e 22 83
e 22 84
e 22 85
e 22 86
e 22 87
e 22 88
e 22 89
e 22 91
e 22 92
e 22 93
e 22 94
e 22 96
e 22 97
e 22 98
e 22 99
e 22 100
e 23 25
e 23 29
e 23 33
e 23 34
e 23 38
e 23 42
e 23 54
e 23 65
e 23 66
e 23 69
e 23 70
e 23 73
e 23 75
e 23 76
e 23 77
e 23 78
e 23 80
e 23 81
e 23 83
e 23 85
e 23 86
e 23 88
e 23 89
e 23 91
e 23 92
e 23 93
e 23 95
e 23 96
e 23 99
e 24 29
e 24 32
e 24 42
e 24 43
e 24 62
e 24 65
e 24 69
e 24 71
e 24 72
e 24 77
e 24 80
e 24 81
e 24 82
e 24 86
e 24 90
e 24 91
e 24 95
e 24 96
e 24 98
e 24 99
e 24 100
e 25 32
e 25 33
e 25 51
e 25 66
e 25 67
e 25 69
e 25 72
e 25 73
e 25 74
e 25 79
e 25 81
e 25 85
e 25 86
e 25 87
e 25 88
e 25 91
e 25 94
e 25 97
e 25 98
e 26 48
e 26 49
e 26 55
e 26 59
e 26 60
e 26 61
e 26 65
e 26 68
e 26 69
e 26 70
e 26 71
e 26 72
e 26 74
e 26 75
e 26 76
e 26 77
e 26 78
e 26 80
e 26 81
e 26 82
e 26 83
e 26 86
e 26 89
e 26 92
e 26 93
e 26 96
e 26 97
e 26 98
e 26 99
e 26 100
e 27 28
e 27 34
e 27 38
e 27 40
e 27 42
e 27 58
e 27 64
e 27 65
e 27 66
e 27 68
e 27 69
e 27 70
e 27 73
e 27 74
e 27 75
e 27 76
e 27 78
e 27 81
e 27 82
e 27 84
e 27 85
e 27 86
e 27 87
e 27 88
e 27 89
e 27 93
e 27 94
e 27 100
e 28 30
e 28 34
e 28 45
e 28 65
e 28 66
e 28 67
e 28 71
e 28 72
e 28 73
e 28 74
e 28 77
e 28 78
e 28 79
e 28 80
e 28 84
e 28 86
e 28 87
e 28 88
e 28 89
e 28 90
e 28 91
e 28 92
e 28 94
e 28 96
e 28 99
e 29 30
e 29 37
e 29 48
e 29 50
e 29 51
e 29 68
e 29 69
e 29 70
e 29 71
e 29 72
e 29 79
e 29 80
e 29 87
e 29 89
e 29 91
e 29 94
e 29 95
e 29 97
e 29 98
e 29 99
e 29 100
e 30 33
e 30 63
e 30 65
e 30 67
e 30 68
e 30 69
e 30 70
e 30 71
e 30 72
e 30 74
e 30 75
e 30 76
e 30 82
e 30 83
e 30 84
e 30 85
e 30 87
e 30 90
e 30 91
e 30 93
e 30 94
e 30 95
e 30 96
e 30 97
e 30 99
e 30 100
e 31 51
e 31 66
e 31 67
e 31 70
e 31 72
e 31 74
e 31 76
e 31 77
e 31 78
e 31 80
e 31 83
e 31 84
e 31 85
e 31 86
e 31 88
e 31 89
e 31 90
e 31 94
e 31 95
e 31 97
e 31 98
e 31 100
e 32 33
e 32 40
e 32 47
e 32 52
e 32 66
e 32 67
e 32 68
e 32 69
e 32 70
e 32 71
e 32 73
e 32 75
e 32 76
e 32 77
e 32 80
e 32 81
e 32 82
e 32 84
e 32 85
e 32 86
e 32 88
e 32 89
e 32 90
e 32 91
e 32 93
e 32 94
e 32 95
e 32 96
e 32 97
e 32 98
e 32 100
e 33 40
e 33 45
e 33 52
e 33 56
e 33 66
e 33 67
e 33 68
e 33 69
e 33 70
e 33 71
e 33 73
e 33 74
e 33 75
e 33 76
e 33 77
e 33 79
e 33 80
e 33 84
e 33 85
e 33 86
e 33 87
e 33 88
e 33 90
e 33 92
e 33 93
e 33 94
e 33 96
e 33 97
e 33 98
e 33 99
e 34 35
e 34 56
e 34 61
e 34 65
e 34 67
e 34 68
e 34 69
e 34 70
e 34 71
e 34 72
e 34 73
e 34 74
e 34 75
e 34 78
e 34 81
e 34 82
e 34 84
e 34 88
e 34 89
e 34 91
e 34 94
e 34 95
e 34 97
e 34 99
e 35 48
e 35 56
e 35 66
e 35 68
e 35 69
e 35 73
e 35 78
e 35 79
e 35 81
e 35 82
e 35 84
e 35 85
e 35 86
e 35 88
e 35 91
e 35 94
e 35 96
e 35 98
e 35 99
e 35 100
e 36 44
e 36 65
e 36 67
e 36 70
e 36 71
e 36 72
e 36 73
e 36 78
e 36 79
e 36 82
e 36 83
e 36 84
e 36 87
e 36 88
e 36 89
e 36 90
e 36 91
e 36 92
e 36 95
e 36 96
e 37 46
e 37 50
e 37 60
e 37 61
e 37 65
e 37 67
e 37 68
e 37 69
e 37 70
e 37 71
e 37 74
e 37 75
e 37 77
e 37 79
e 37 80
e 37 81
e 37 82
e 37 83
e 37 84
e 37 86
e 37 87
e 37 88
e 37 89
e 37 91
e 37 92
e 37 93
e 37 94
e 37 97
e 37 98
e 37 99
e 37 100
e 38 39
e 38 41
e 38 65
e 38 67
e 38 69
e 38 70
e 38 71
e 38 72
e 38 74
e 38 75
e 38 78
e 38 79
e 38 80
e 38 82
e 38 83
e 38 84
e 38 85
e 38 86
e 38 87
e 38 89
e 38 91
e 38 97
e 38 98
e 38 100
e 39 59
e 39 66
e 39 67
e 39 69
e 39 70
e 39 71
e 39 72
e 39 73
e 39 75
e 39 76
e 39 78
e 39 79
e 39 80
e 39 82
e 39 85
e 39 86
e 39 87
e 39 91
e 39 93
e 39 95
e 39 99
e 40 65
e 40 66
e 40 67
e 40 69
e 40 70
e 40 71
e 40 72
e 40 73
e 40 74
e 40 76
e 40 80
e 40 81
e 40 82
e 40 83
e 40 84
e 40 86
e 40 87
e 40 88
e 40 90
e 40 92
e 40 93
e 40 94
e 40 95
e 41 45
e 41 48
e 41 50
e 41 67
e 41 68
e 41 69
e 41 70
e 41 73
e 41 74
e 41 75
e 41 76
e 41 77
e 41 78
e 41 86
e 41 87
e 41 89
e 41 91
e 41 92
e 41 93
e 41 96
e 41 97
e 41 100
e 42 49
e 42 50
e 42 65
e 42 66
e 42 68
e 42 69
e 42 71
e 42 72
e 42 74
e 42 75
e 42 76
e 42 77
e 42 80
e 42 81
e 42 82
e 42 83
e 42 84
e 42 85
e 42 87
e 42 88
e 42 89
e 42 92
e 42 93
e 42 94
e 42 95
e 42 96
e 42 97
e 42 98
e 42 99
e 42 100
e 43 45
e 43 65
e 43 66
e 43 68
e 43 73
e 43 74
e 43 76
e 43 77
e 43 78
e 43 79
e 43 81
e 43 82
e 43 84
e 43 85
e 43 86
e 43 87
e 43 88
e 43 89
e 43 91
e 43 92
e 43 94
e 43 95
e 43 96
e 43 97
e 43 98
e 43 99
e 43 100
e 44 51
e 44 68
e 44 70
e 44 71
e 44 72
e 44 73
e 44 74
e 44 75
e 44 76
e 44 77
e 44 78
e 44 80
e 44 81
e 44 84
e 44 85
e 44 86
e 44 87
e 44 88
e 44 89
e 44 91
e 44 92
e 44 93
e 44 94
e 44 95
e 44 96
e 44 98
e 44 99
e 44 100
e 45 57
e 45 60
e 45 65
e 45 67
e 45 70
e 45 71
e 45 72
e 45 73
e 45 74
e 45 75
e 45 76
e 45 77
e 45 80
e 45 83
e 45 84
e 45 87
e 45 90
e 45 91
e 45 92
e 45 94
e 45 95
e 45 98
e 45 99
e 46 65
e 46 66
e 46 68
e 46 69
e 46 70
e 46 71
e 46 73
e 46 75
e 46 76
e 46 77
e 46 80
e 46 81
e 46 82
e 46 85
e 46 86
e 46 87
e 46 90
e 46 94
e 46 95
e 46 96
e 46 97
e 46 98
e 47 56
e 47 59
e 47 67
e 47 68
e 47 69
e 47 71
e 47 73
e 47 74
e 47 76
e 47 77
e 47 79
e 47 80
e 47 83
e 47 84
e 47 85
e 47 86
e 47 87
e 47 88
e 47 89
e 47 92
e 47 93
e 47 95
e 47 96
e 47 98
e 47 99
e 47 100
e 48 63
e 48 65
e 48 66
e 48 67
e 48 68
e 48 69
e 48 73
e 48 74
e 48 76
e 48 77
e 48 78
e 48 79
e 48 81
e 48 82
e 48 83
e 48 84
e 48 85
e 48 88
e 48 89
e 48 90
e 48 91
e 48 92
e 48 93
e 48 94
e 48 95
e 48 98
e 48 100
e 49 50
e 49 65
e 49 66
e 49 67
e 49 68
e 49 70
e 49 73
e 49 76
e 49 77
e 49 79
e 49 80
e 49 81
e 49 82
e 49 84
e 49 88
e 49 90
e 49 91
e 49 92
e 49 93
e 49 94
e 49 98
e 49 99
e 50 54
e 50 63
e 50 65
e 50 66
e 50 68
e 50 69
e 50 71
e 50 72
e 50 73
e 50 74
e 50 76
e 50 77
e 50 82
e 50 83
e 50 88
e 50 89
e 50 91
e 50 93
e 50 95
e 50 96
e 50 97
e 50 98
e 50 100
e 51 59
e 51 65
e 51 66
e 51 67
e 51 68
e 51 69
e 51 70
e 51 72
e 51 73
e 51 74
e 51 75
e 51 76
e 51 77
e 51 78
e 51 79
e 51 80
e 51 82
e 51 83
e 51 84
e 51 86
e 51 88
e 51 89
e 51 91
e 51 92
e 51 93
e 51 94
e 51 98
e 52 66
e 52 69
e 52 72
e 52 73
e 52 74
e 52 75
e 52 76
e 52 77
e 52 79
e 52 80
e 52 81
e 52 82
e 52 84
e 52 88
e 52 89
e 52 91
e 52 92
e 52 93
e 52 94
e 52 95
e 52 98
e 52 99
e 53 60
e 53 66
e 53 68
e 53 70
e 53 72
e 53 79
e 53 81
e 53 82
e 53 85
e 53 86
e 53 88
e 53 89
e 53 90
e 53 91
e 53 92
e 53 93
e 53 94
e 53 95
e 53 96
e 53 99
e 53 100
e 54 62
e 54 65
e 54 68
e 54 69
e 54 70
e 54 72
e 54 76
e 54 78
e 54 79
e 54 81
e 54 82
e 54 83
e 54 84
e 54 85
e 54 86
e 54 87
e 54 88
e 54 91
e 54 92
e 54 97
e 54 99
e 54 100
e 55 56
e 55 64
e 55 65
e 55 66
e 55 69
e 55 70
e 55 71
e 55 72
e 55 73
e 55 75
e 55 76
e 55 78
e 55 79
e 55 81
e 55 83
e 55 84
e 55 86
e 55 87
e 55 89
e 55 90
e 55 91
e 55 92
e 55 93
e 55 96
e 55 97
e 55 98
e 55 99
e 56 58
e 56 63
e 56 65
e 56 67
e 56 71
e 56 72
e 56 73
e 56 74
e 56 76
e 56 77
e 56 78
e 56 80
e 56 84
e 56 85
e 56 86
e 56 88
e 56 89
e 56 91
e 56 92
e 56 94
e 56 95
e 56 96
e 57 58
e 57 62
e 57 65
e 57 68
e 57 69
e 57 72
e 57 74
e 57 75
e 57 77
e 57 81
e 57 83
e 57 84
e 57 86
e 57 87
e 57 88
e 57 89
e 57 90
e 57 93
e 57 95
e 57 97
e 57 100
e 58 66
e 58 70
e 58 71
e 58 75
e 58 76
e 58 78
e 58 80
e 58 81
e 58 84
e 58 85
e 58 87
e 58 88
e 58 90
e 58 91
e 58 92
e 58 94
e 58 95
e 58 96
e 58 97
e 58 99
e 59 62
e 59 66
e 59 67
e 59 69
e 59 70
e 59 71
e 59 74
e 59 79
e 59 80
e 59 81
e 59 82
e 59 83
e 59 84
e 59 85
e 59 86
e 59 87
e 59 88
e 59 89
e 59 90
e 59 91
e 59 93
e 59 94
e 59 96
e 59 98
e 59 100
e 60 65
e 60 66
e 60 67
e 60 69
e 60 72
e 60 74
e 60 75
e 60 76
e 60 78
e 60 79
e 60 82
e 60 84
e 60 85
e 60 86
e 60 88
e 60 89
e 60 90
e 60 91
e 60 92
e 60 95
e 60 96
e 60 98
e 60 99
e 61 65
e 61 66
e 61 71
e 61 72
e 61 74
e 61 75
e 61 76
e 61 77
e 61 79
e 61 80
e 61 84
e 61 86
e 61 87
e 61 90
e 61 92
e 61 93
e 61 95
e 61 98
e 61 100
e 62 66
e 62 69
e 62 71
e 62 72
e 62 73
e 62 74
e 62 75
e 62 78
e 62 80
e 62 85
e 62 86
e 62 87
e 62 88
e 62 89
e 62 92
e 62 94
e 62 95
e 62 96
e 62 98
e 62 100
e 63 67
e 63 69
e 63 70
e 63 71
e 63 73
e 63 74
e 63 78
e 63 79
e 63 80
e 63 81
e 63 82
e 63 83
e 63 84
e 63 86
e 63 88
e 63 89
e 63 90
e 63 91
e 63 92
e 63 93
e 63 95
e 63 96
e 63 99
e 64 66
e 64 67
e 64 68
e 64 69
e 64 70
e 64 72
e 64 74
e 64 75
e 64 76
e 64 77
e 64 78
e 64 79
e 64 80
e 64 81
e 64 82
e 64 83
e 64 84
e 64 85
e 64 86
e 64 87
e 64 90
e 64 92
e 64 93
e 64 94
e 64 95
e 64 96
e 64 97
e 64 98
e 64 100
e 65 69
e 65 71
e 65 72
e 66 75
e 66 93
e 67 75
e 67 89
e 67 91
e 68 72
e 71 75
e 72 93
e 73 86
e 73 97
e 74 92
e 75 81
e 76 89
e 76 93
e 78 81
e 78 92
e 79 81
e 79 86
e 79 89
e 79 90
e 79 100
e 80 88
e 80 92
e 80 94
e 80 99
e 82 93
e 84 99
e 86 92
e 87 92
e 88 92
e 89 91
e 89 97
e 97 100
e 98 99
